30
2 1 6
6 1 7
7 4 10
12 3 1
12 11 8
13 5 4
14 7 7
15 13 3
16 12 10
17 11 10
17 13 8
18 6 6
18 13 1
19 1 9
19 2 8
19 4 10
19 12 7
20 4 4
20 15 8
21 9 10
21 11 6
21 18 2
22 0 10
22 6 9
23 9 3
24 2 7
24 5 4
24 8 9
24 10 8
24 15 5
24 21 10
25 3 2
25 10 8
26 6 1
26 7 2
26 19 4
26 20 6
26 21 2
27 16 10
27 21 1
27 24 3
28 2 1
28 4 8
28 8 8
28 20 6
28 24 8
29 5 4
29 12 3
29 14 5
